$ Mg-Si
$
$ TDB-file for the thermodynamic assessment of the Mg-Si system
$
$------------------------------------------------------------------------------
$ 2021.08.23
$
$ TDB file for PANDAT created by G.Deffrennes, T.Abe, K.Hashimoto and Y.Sawada
$
$ National Institute for Materials Science. 
$ 1-2-1 Sengen, Tsukuba, Ibaraki 305-0047, Japan
$ e-mail: abe.taichi @nims.go.jp
$ Copyright (C) NIMS 2021

$------------------------------------------------------------------------------
$ PARAMETERS ARE TAKEN FROM
$ Phase Equilibria and Thermodynamics of the
$ Mg-Si-Li System and Remodeling of the Mg-Si System
$ D. Kevorkov, R. Schmid-Fetzer, and F. Zhang, JPEDAV, 25 (2004) 140-151.
$
$------------------------------------------------------------------------------
$ Comments
$ Parameters for pure elements are taken from SGTE Unary 5.0.
$                                                                          T.A.
$------------------------------------------------------------------------------
$ ELEMENTS
$------------------------------------------------------------------------------
 ELEMENT /-   ELECTRON_GAS              0.0000E+00  0.0000E+00  0.0000E+00!
 ELEMENT VA   VACUUM                    0.0000E+00  0.0000E+00  0.0000E+00!
 ELEMENT MG   HCP_A3                    2.4305E+01  4.9980E+03  3.2671E+01!
 ELEMENT SI   DIAMOND_A4                2.8085E+01  3.2175E+03  1.8820E+01!
$------------------------------------------------------------------------------
$ FUNCTION
$------------------------------------------------------------------------------
$ Mg
$ -------------------------------------
 FUNCTION GHSERMG  298.15
 -8367.34+143.675547*T-26.1849782*T*LN(T)+0.4858E-3*T**2-1.393669E-6*T**3
 +78950*T**(-1);   923.00 Y
 -14130.185+204.716215*T-34.3088*T*LN(T)+1038.192E25*T**(-9);  3000.00 N !
 
 FUNCTION GLIQMG 298.15 8202.243-8.83693*T-80.176E-21*T**7+GHSERMG; 923 Y
 -5439.869+195.324057*T-34.3088*T*LN(T);  3000.00 N !
 
$ Si
$ -------------------------------------
 FUNCTION GHSERSI  298.15
 -8162.609+137.236859*T-22.8317533*T*LN(T)-1.912904E-3*T**2-0.003552E-6*T**3
 +176667*T**(-1);  1687.00 Y
 -9457.642+167.281367*T-27.196*T*LN(T)-420.369E28*T**(-9);  3600.00 N !
 
 FUNCTION GLIQSI 298.15 50696.36-30.099439*T+209.307E-23*T**7+GHSERSI; 1687 Y
 40370.523+137.722298*T-27.196*T*LN(T);  3600.00 N !
 
 FUNCTION GHCPSI 298.15 49200-20.8*T+GHSERSI; 3600 N !
$
$------------------------------------------------------------------------------
 TYPE_DEFINITION % SEQ * !
 DEFINE_SYSTEM_DEFAULT ELEMENT 2 !
 DEFAULT_COMMAND DEF_SYS_ELEMENT VA !
$------------------------------------------------------------------------------
$ PARAMETERS FOR LIQUID PHASE
$------------------------------------------------------------------------------
 PHASE LIQUID %  1  1  !
 CONSTITUENT LIQUID :MG,SI:!
 PARAMETER G(LIQUID,MG;0)    298.15     +GLIQMG#;                   6000 N !
 PARAMETER G(LIQUID,SI;0)    298.15     +GLIQSI#;                   6000 N !
 PARAMETER L(LIQUID,MG,SI;0) 298.15     -70055+24.98*T;             6000 N !
 PARAMETER L(LIQUID,MG,SI;1) 298.15     -1300;                      6000 N !
 PARAMETER L(LIQUID,MG,SI;2) 298.15     +6272;                      6000 N !
$------------------------------------------------------------------------------
$ PARAMETERS FOR HCP_A3 PHASE
$------------------------------------------------------------------------------
 PHASE HCP_A3 % 1 1 !
 CONSTITUENT HCP_A3 :MG,SI:!
 PARAMETER G(HCP_A3,MG;0)    298.15  +GHSERMG#;                     6000 N !
 PARAMETER G(HCP_A3,SI;0)    298.15  +GHCPSI#;                      6000 N !
 PARAMETER L(HCP_A3,MG,SI;0) 298.15  -7148.79+0.894*T;              6000 N !
$------------------------------------------------------------------------------
$ PARAMETERS FOR DIAMOND_A4 PHASE
$------------------------------------------------------------------------------
 PHASE DIAMOND_A4 % 2 1 1 !
 CONSTITUENT DIAMOND_A4 : SI : VA : !
 PARAMETER G(DIAMOND_A4,SI:VA)    298.15  +GHSERSI;                 6000 N !
$------------------------------------------------------------------------------
$ PARAMETERS FOR COMPOUNDS
$------------------------------------------------------------------------------
 PHASE MG2SI % 2 0.5 0.25 !
 CONSTITUENT MG2SI : MG : SI : !
 PARAMETER G(MG2SI,MG:SI)    298.15  +0.5*GHSERMG+0.25*GHSERSI
             -16177.5+3.8967*T;                                       6000 N !
$------------------------------------------------------------------------------
$end